
;this file is automatically generated: Thu Jan 02 16:54:47 GMT 2020

;declarations generated

(declare-fun oclExcludes ( Int Int) Bool)
(declare-fun type_074ca999_75ae_4f7d_b304_22d11738b9ff_Class56 ( Int) Bool)
(declare-fun type_074ca999_75ae_4f7d_b304_22d11738b9ff_Class45 ( Int) Bool)
(declare-fun type_074ca999_75ae_4f7d_b304_22d11738b9ff_Class36 ( Int) Bool)
(declare-fun type_074ca999_75ae_4f7d_b304_22d11738b9ff_Class2 ( Int) Bool)
(declare-fun Cardinality ( Int) Int)
(declare-fun type_074ca999_75ae_4f7d_b304_22d11738b9ff_Class27 ( Int) Bool)
(declare-fun type_074ca999_75ae_4f7d_b304_22d11738b9ff_Class29 ( Int) Bool)
(declare-fun class45_Class45IntAttr2 ( Int) Int)
(declare-fun type_074ca999_75ae_4f7d_b304_22d11738b9ff_Class14 ( Int) Bool)
(declare-fun oclSelect ( Int Bool) Int)
(declare-fun Enum0 ( Int) Int)
(declare-fun Enum1 ( Int) Int)
(declare-fun Enum2 ( Int) Int)
(declare-fun container_ ( Int) Int)
(declare-fun obj_1ac89988_16e2_451e_867b_24acb1f4c0c5 ( Int) Int)
(declare-fun oclIncludes ( Int Int) Bool)
(declare-fun ObjAt ( Int Int) Int)

;formula(s) generated
(assert (! (or (forall ((v Int)) (=> (and (and (and (and (and (and ( type_074ca999_75ae_4f7d_b304_22d11738b9ff_Class45 v )  ( type_074ca999_75ae_4f7d_b304_22d11738b9ff_Class56 v ) ) ( type_074ca999_75ae_4f7d_b304_22d11738b9ff_Class14 v ) ) ( type_074ca999_75ae_4f7d_b304_22d11738b9ff_Class36 v ) ) ( type_074ca999_75ae_4f7d_b304_22d11738b9ff_Class27 v ) ) ( type_074ca999_75ae_4f7d_b304_22d11738b9ff_Class29 v ) ) ( type_074ca999_75ae_4f7d_b304_22d11738b9ff_Class2 v ) ) (= ( Enum1 ( obj_1ac89988_16e2_451e_867b_24acb1f4c0c5 v )  )  10))) (forall ((v Int)) (=> (and (and (and (and (and (and ( type_074ca999_75ae_4f7d_b304_22d11738b9ff_Class45 v )  ( type_074ca999_75ae_4f7d_b304_22d11738b9ff_Class56 v ) ) ( type_074ca999_75ae_4f7d_b304_22d11738b9ff_Class14 v ) ) ( type_074ca999_75ae_4f7d_b304_22d11738b9ff_Class36 v ) ) ( type_074ca999_75ae_4f7d_b304_22d11738b9ff_Class27 v ) ) ( type_074ca999_75ae_4f7d_b304_22d11738b9ff_Class29 v ) ) ( type_074ca999_75ae_4f7d_b304_22d11738b9ff_Class2 v ) ) (>= ( class45_Class45IntAttr2 ( obj_1ac89988_16e2_451e_867b_24acb1f4c0c5 v )  )  10)))):named l0))
(assert (! (and (forall ((v Int)) (=> (and (and (and (and (and (and ( type_074ca999_75ae_4f7d_b304_22d11738b9ff_Class45 v )  ( type_074ca999_75ae_4f7d_b304_22d11738b9ff_Class56 v ) ) ( type_074ca999_75ae_4f7d_b304_22d11738b9ff_Class14 v ) ) ( type_074ca999_75ae_4f7d_b304_22d11738b9ff_Class36 v ) ) ( type_074ca999_75ae_4f7d_b304_22d11738b9ff_Class27 v ) ) ( type_074ca999_75ae_4f7d_b304_22d11738b9ff_Class29 v ) ) ( type_074ca999_75ae_4f7d_b304_22d11738b9ff_Class2 v ) ) (>= ( class45_Class45IntAttr2 ( obj_1ac89988_16e2_451e_867b_24acb1f4c0c5 v )  )  16))) (forall ((v Int)) (=> (and (and (and (and (and (and ( type_074ca999_75ae_4f7d_b304_22d11738b9ff_Class45 v )  ( type_074ca999_75ae_4f7d_b304_22d11738b9ff_Class56 v ) ) ( type_074ca999_75ae_4f7d_b304_22d11738b9ff_Class14 v ) ) ( type_074ca999_75ae_4f7d_b304_22d11738b9ff_Class36 v ) ) ( type_074ca999_75ae_4f7d_b304_22d11738b9ff_Class27 v ) ) ( type_074ca999_75ae_4f7d_b304_22d11738b9ff_Class29 v ) ) ( type_074ca999_75ae_4f7d_b304_22d11738b9ff_Class2 v ) ) (< ( class45_Class45IntAttr2 ( obj_1ac89988_16e2_451e_867b_24acb1f4c0c5 v )  )  16)))):named l1))
(assert (exists ((o Int)) (and (and (and (and (and (and ( type_074ca999_75ae_4f7d_b304_22d11738b9ff_Class45 ( obj_1ac89988_16e2_451e_867b_24acb1f4c0c5 o )  )  ( type_074ca999_75ae_4f7d_b304_22d11738b9ff_Class56 ( obj_1ac89988_16e2_451e_867b_24acb1f4c0c5 o )  ) ) ( type_074ca999_75ae_4f7d_b304_22d11738b9ff_Class14 ( obj_1ac89988_16e2_451e_867b_24acb1f4c0c5 o )  ) ) ( type_074ca999_75ae_4f7d_b304_22d11738b9ff_Class36 ( obj_1ac89988_16e2_451e_867b_24acb1f4c0c5 o )  ) ) ( type_074ca999_75ae_4f7d_b304_22d11738b9ff_Class27 ( obj_1ac89988_16e2_451e_867b_24acb1f4c0c5 o )  ) ) ( type_074ca999_75ae_4f7d_b304_22d11738b9ff_Class29 ( obj_1ac89988_16e2_451e_867b_24acb1f4c0c5 o )  ) ) ( type_074ca999_75ae_4f7d_b304_22d11738b9ff_Class2 ( obj_1ac89988_16e2_451e_867b_24acb1f4c0c5 o )  ) )))

 ;end of formula 